p cnf 195 661
c p weight 78 -1 0
c p weight -78 1 0
c p weight 80 6.12323399573676603586882014729198302312846062338790031898128063403419218957424163818359375E-17 0
c p weight -80 1 0
c p weight 81 1 0
c p weight -81 1 0
c p weight 82 -1 0
c p weight -82 1 0
c p weight 84 -1 0
c p weight -84 1 0
c p weight 87 -1 0
c p weight -87 1 0
c p weight 90 -1 0
c p weight -90 1 0
c p weight 93 -1 0
c p weight -93 1 0
c p weight 96 -1 0
c p weight -96 1 0
c p weight 99 -1 0
c p weight -99 1 0
c p weight 102 -1 0
c p weight -102 1 0
c p weight 105 -1 0
c p weight -105 1 0
c p weight 108 -1 0
c p weight -108 1 0
c p weight 111 -1 0
c p weight -111 1 0
c p weight 114 -1 0
c p weight -114 1 0
c p weight 117 -1 0
c p weight -117 1 0
c p weight 120 -1 0
c p weight -120 1 0
c p weight 123 -1 0
c p weight -123 1 0
c p weight 126 -1 0
c p weight -126 1 0
c p weight 129 -1 0
c p weight -129 1 0
c p weight 132 -1 0
c p weight -132 1 0
c p weight 135 -1 0
c p weight -135 1 0
c p weight 138 -1 0
c p weight -138 1 0
c p weight 141 -1 0
c p weight -141 1 0
c p weight 144 -1 0
c p weight -144 1 0
c p weight 147 -1 0
c p weight -147 1 0
c p weight 150 -1 0
c p weight -150 1 0
c p weight 153 -1 0
c p weight -153 1 0
c p weight 156 -1 0
c p weight -156 1 0
c p weight 159 -1 0
c p weight -159 1 0
c p weight 162 -1 0
c p weight -162 1 0
c p weight 165 -1 0
c p weight -165 1 0
c p weight 168 -1 0
c p weight -168 1 0
c p weight 171 -1 0
c p weight -171 1 0
c p weight 174 -1 0
c p weight -174 1 0
c p weight 177 -1 0
c p weight -177 1 0
c p weight 180 -1 0
c p weight -180 1 0
c p weight 183 -1 0
c p weight -183 1 0
c p weight 186 -1 0
c p weight -186 1 0
c p weight 189 -1 0
c p weight -189 1 0
c p weight 192 -1 0
c p weight -192 1 0
c p weight 195 -1 0
c p weight -195 1 0
-75 0
-73 0
-71 0
-69 0
-67 0
-65 0
-63 0
-61 0
-59 0
-57 0
-55 0
-53 0
-51 0
-49 0
-47 0
-45 0
-43 0
-41 0
-39 0
-37 0
-35 0
-33 0
-31 0
-29 0
-27 0
-25 0
-23 0
-21 0
-19 0
-17 0
-15 0
-13 0
-11 0
-9 0
-7 0
-5 0
-3 0
-1 0
77 75 -76 0
77 -75 76 0
-77 75 76 0
-77 -75 -76 0
-78 75 0
-78 76 0
78 -75 -76 0
79 -75 77 0
-79 75 77 0
-80 77 0
79 -80 -75 0
-79 -80 75 0
79 80 75 -77 0
-79 80 -75 -77 0
-81 77 0
79 -81 75 0
-79 -81 -75 0
79 81 -75 -77 0
-79 81 75 -77 0
-82 79 0
-82 77 0
-82 -75 0
82 -79 75 -77 0
83 79 -77 0
83 -79 77 0
-83 79 77 0
-83 -79 -77 0
-84 79 0
-84 77 0
84 -79 -77 0
85 79 -73 0
85 -79 73 0
-85 79 73 0
-85 -79 -73 0
86 83 -74 0
86 -83 74 0
-86 83 74 0
-86 -83 -74 0
-87 79 0
-87 74 0
-87 73 -83 0
-87 -73 83 0
87 -79 73 83 -74 0
87 -79 -73 -83 -74 0
88 85 -71 0
88 -85 71 0
-88 85 71 0
-88 -85 -71 0
89 74 -72 0
89 -74 72 0
-89 74 72 0
-89 -74 -72 0
-90 85 0
-90 72 0
-90 71 -74 0
-90 -71 74 0
90 -85 71 74 -72 0
90 -85 -71 -74 -72 0
91 88 -69 0
91 -88 69 0
-91 88 69 0
-91 -88 -69 0
92 72 -70 0
92 -72 70 0
-92 72 70 0
-92 -72 -70 0
-93 88 0
-93 70 0
-93 69 -72 0
-93 -69 72 0
93 -88 69 72 -70 0
93 -88 -69 -72 -70 0
94 91 -67 0
94 -91 67 0
-94 91 67 0
-94 -91 -67 0
95 70 -68 0
95 -70 68 0
-95 70 68 0
-95 -70 -68 0
-96 91 0
-96 68 0
-96 67 -70 0
-96 -67 70 0
96 -91 67 70 -68 0
96 -91 -67 -70 -68 0
97 94 -65 0
97 -94 65 0
-97 94 65 0
-97 -94 -65 0
98 68 -66 0
98 -68 66 0
-98 68 66 0
-98 -68 -66 0
-99 94 0
-99 66 0
-99 65 -68 0
-99 -65 68 0
99 -94 65 68 -66 0
99 -94 -65 -68 -66 0
100 97 -63 0
100 -97 63 0
-100 97 63 0
-100 -97 -63 0
101 66 -64 0
101 -66 64 0
-101 66 64 0
-101 -66 -64 0
-102 97 0
-102 64 0
-102 63 -66 0
-102 -63 66 0
102 -97 63 66 -64 0
102 -97 -63 -66 -64 0
103 100 -61 0
103 -100 61 0
-103 100 61 0
-103 -100 -61 0
104 64 -62 0
104 -64 62 0
-104 64 62 0
-104 -64 -62 0
-105 100 0
-105 62 0
-105 61 -64 0
-105 -61 64 0
105 -100 61 64 -62 0
105 -100 -61 -64 -62 0
106 103 -59 0
106 -103 59 0
-106 103 59 0
-106 -103 -59 0
107 62 -60 0
107 -62 60 0
-107 62 60 0
-107 -62 -60 0
-108 103 0
-108 60 0
-108 59 -62 0
-108 -59 62 0
108 -103 59 62 -60 0
108 -103 -59 -62 -60 0
109 106 -57 0
109 -106 57 0
-109 106 57 0
-109 -106 -57 0
110 60 -58 0
110 -60 58 0
-110 60 58 0
-110 -60 -58 0
-111 106 0
-111 58 0
-111 57 -60 0
-111 -57 60 0
111 -106 57 60 -58 0
111 -106 -57 -60 -58 0
112 109 -55 0
112 -109 55 0
-112 109 55 0
-112 -109 -55 0
113 58 -56 0
113 -58 56 0
-113 58 56 0
-113 -58 -56 0
-114 109 0
-114 56 0
-114 55 -58 0
-114 -55 58 0
114 -109 55 58 -56 0
114 -109 -55 -58 -56 0
115 112 -53 0
115 -112 53 0
-115 112 53 0
-115 -112 -53 0
116 56 -54 0
116 -56 54 0
-116 56 54 0
-116 -56 -54 0
-117 112 0
-117 54 0
-117 53 -56 0
-117 -53 56 0
117 -112 53 56 -54 0
117 -112 -53 -56 -54 0
118 115 -51 0
118 -115 51 0
-118 115 51 0
-118 -115 -51 0
119 54 -52 0
119 -54 52 0
-119 54 52 0
-119 -54 -52 0
-120 115 0
-120 52 0
-120 51 -54 0
-120 -51 54 0
120 -115 51 54 -52 0
120 -115 -51 -54 -52 0
121 118 -49 0
121 -118 49 0
-121 118 49 0
-121 -118 -49 0
122 52 -50 0
122 -52 50 0
-122 52 50 0
-122 -52 -50 0
-123 118 0
-123 50 0
-123 49 -52 0
-123 -49 52 0
123 -118 49 52 -50 0
123 -118 -49 -52 -50 0
124 121 -47 0
124 -121 47 0
-124 121 47 0
-124 -121 -47 0
125 50 -48 0
125 -50 48 0
-125 50 48 0
-125 -50 -48 0
-126 121 0
-126 48 0
-126 47 -50 0
-126 -47 50 0
126 -121 47 50 -48 0
126 -121 -47 -50 -48 0
127 124 -45 0
127 -124 45 0
-127 124 45 0
-127 -124 -45 0
128 48 -46 0
128 -48 46 0
-128 48 46 0
-128 -48 -46 0
-129 124 0
-129 46 0
-129 45 -48 0
-129 -45 48 0
129 -124 45 48 -46 0
129 -124 -45 -48 -46 0
130 127 -43 0
130 -127 43 0
-130 127 43 0
-130 -127 -43 0
131 46 -44 0
131 -46 44 0
-131 46 44 0
-131 -46 -44 0
-132 127 0
-132 44 0
-132 43 -46 0
-132 -43 46 0
132 -127 43 46 -44 0
132 -127 -43 -46 -44 0
133 130 -41 0
133 -130 41 0
-133 130 41 0
-133 -130 -41 0
134 44 -42 0
134 -44 42 0
-134 44 42 0
-134 -44 -42 0
-135 130 0
-135 42 0
-135 41 -44 0
-135 -41 44 0
135 -130 41 44 -42 0
135 -130 -41 -44 -42 0
136 133 -39 0
136 -133 39 0
-136 133 39 0
-136 -133 -39 0
137 42 -40 0
137 -42 40 0
-137 42 40 0
-137 -42 -40 0
-138 133 0
-138 40 0
-138 39 -42 0
-138 -39 42 0
138 -133 39 42 -40 0
138 -133 -39 -42 -40 0
139 136 -37 0
139 -136 37 0
-139 136 37 0
-139 -136 -37 0
140 40 -38 0
140 -40 38 0
-140 40 38 0
-140 -40 -38 0
-141 136 0
-141 38 0
-141 37 -40 0
-141 -37 40 0
141 -136 37 40 -38 0
141 -136 -37 -40 -38 0
142 139 -35 0
142 -139 35 0
-142 139 35 0
-142 -139 -35 0
143 38 -36 0
143 -38 36 0
-143 38 36 0
-143 -38 -36 0
-144 139 0
-144 36 0
-144 35 -38 0
-144 -35 38 0
144 -139 35 38 -36 0
144 -139 -35 -38 -36 0
145 142 -33 0
145 -142 33 0
-145 142 33 0
-145 -142 -33 0
146 36 -34 0
146 -36 34 0
-146 36 34 0
-146 -36 -34 0
-147 142 0
-147 34 0
-147 33 -36 0
-147 -33 36 0
147 -142 33 36 -34 0
147 -142 -33 -36 -34 0
148 145 -31 0
148 -145 31 0
-148 145 31 0
-148 -145 -31 0
149 34 -32 0
149 -34 32 0
-149 34 32 0
-149 -34 -32 0
-150 145 0
-150 32 0
-150 31 -34 0
-150 -31 34 0
150 -145 31 34 -32 0
150 -145 -31 -34 -32 0
151 148 -29 0
151 -148 29 0
-151 148 29 0
-151 -148 -29 0
152 32 -30 0
152 -32 30 0
-152 32 30 0
-152 -32 -30 0
-153 148 0
-153 30 0
-153 29 -32 0
-153 -29 32 0
153 -148 29 32 -30 0
153 -148 -29 -32 -30 0
154 151 -27 0
154 -151 27 0
-154 151 27 0
-154 -151 -27 0
155 30 -28 0
155 -30 28 0
-155 30 28 0
-155 -30 -28 0
-156 151 0
-156 28 0
-156 27 -30 0
-156 -27 30 0
156 -151 27 30 -28 0
156 -151 -27 -30 -28 0
157 154 -25 0
157 -154 25 0
-157 154 25 0
-157 -154 -25 0
158 28 -26 0
158 -28 26 0
-158 28 26 0
-158 -28 -26 0
-159 154 0
-159 26 0
-159 25 -28 0
-159 -25 28 0
159 -154 25 28 -26 0
159 -154 -25 -28 -26 0
160 157 -23 0
160 -157 23 0
-160 157 23 0
-160 -157 -23 0
161 26 -24 0
161 -26 24 0
-161 26 24 0
-161 -26 -24 0
-162 157 0
-162 24 0
-162 23 -26 0
-162 -23 26 0
162 -157 23 26 -24 0
162 -157 -23 -26 -24 0
163 160 -21 0
163 -160 21 0
-163 160 21 0
-163 -160 -21 0
164 24 -22 0
164 -24 22 0
-164 24 22 0
-164 -24 -22 0
-165 160 0
-165 22 0
-165 21 -24 0
-165 -21 24 0
165 -160 21 24 -22 0
165 -160 -21 -24 -22 0
166 163 -19 0
166 -163 19 0
-166 163 19 0
-166 -163 -19 0
167 22 -20 0
167 -22 20 0
-167 22 20 0
-167 -22 -20 0
-168 163 0
-168 20 0
-168 19 -22 0
-168 -19 22 0
168 -163 19 22 -20 0
168 -163 -19 -22 -20 0
169 166 -17 0
169 -166 17 0
-169 166 17 0
-169 -166 -17 0
170 20 -18 0
170 -20 18 0
-170 20 18 0
-170 -20 -18 0
-171 166 0
-171 18 0
-171 17 -20 0
-171 -17 20 0
171 -166 17 20 -18 0
171 -166 -17 -20 -18 0
172 169 -15 0
172 -169 15 0
-172 169 15 0
-172 -169 -15 0
173 18 -16 0
173 -18 16 0
-173 18 16 0
-173 -18 -16 0
-174 169 0
-174 16 0
-174 15 -18 0
-174 -15 18 0
174 -169 15 18 -16 0
174 -169 -15 -18 -16 0
175 172 -13 0
175 -172 13 0
-175 172 13 0
-175 -172 -13 0
176 16 -14 0
176 -16 14 0
-176 16 14 0
-176 -16 -14 0
-177 172 0
-177 14 0
-177 13 -16 0
-177 -13 16 0
177 -172 13 16 -14 0
177 -172 -13 -16 -14 0
178 175 -11 0
178 -175 11 0
-178 175 11 0
-178 -175 -11 0
179 14 -12 0
179 -14 12 0
-179 14 12 0
-179 -14 -12 0
-180 175 0
-180 12 0
-180 11 -14 0
-180 -11 14 0
180 -175 11 14 -12 0
180 -175 -11 -14 -12 0
181 178 -9 0
181 -178 9 0
-181 178 9 0
-181 -178 -9 0
182 12 -10 0
182 -12 10 0
-182 12 10 0
-182 -12 -10 0
-183 178 0
-183 10 0
-183 9 -12 0
-183 -9 12 0
183 -178 9 12 -10 0
183 -178 -9 -12 -10 0
184 181 -7 0
184 -181 7 0
-184 181 7 0
-184 -181 -7 0
185 10 -8 0
185 -10 8 0
-185 10 8 0
-185 -10 -8 0
-186 181 0
-186 8 0
-186 7 -10 0
-186 -7 10 0
186 -181 7 10 -8 0
186 -181 -7 -10 -8 0
187 184 -5 0
187 -184 5 0
-187 184 5 0
-187 -184 -5 0
188 8 -6 0
188 -8 6 0
-188 8 6 0
-188 -8 -6 0
-189 184 0
-189 6 0
-189 5 -8 0
-189 -5 8 0
189 -184 5 8 -6 0
189 -184 -5 -8 -6 0
190 187 -3 0
190 -187 3 0
-190 187 3 0
-190 -187 -3 0
191 6 -4 0
191 -6 4 0
-191 6 4 0
-191 -6 -4 0
-192 187 0
-192 4 0
-192 3 -6 0
-192 -3 6 0
192 -187 3 6 -4 0
192 -187 -3 -6 -4 0
193 190 -1 0
193 -190 1 0
-193 190 1 0
-193 -190 -1 0
194 4 -2 0
194 -4 2 0
-194 4 2 0
-194 -4 -2 0
-195 190 0
-195 2 0
-195 1 -4 0
-195 -1 4 0
195 -190 1 4 -2 0
195 -190 -1 -4 -2 0
-193 0
-190 0
-194 0
-187 0
-191 0
-184 0
-188 0
-181 0
-185 0
-178 0
-182 0
-175 0
-179 0
-172 0
-176 0
-169 0
-173 0
-166 0
-170 0
-163 0
-167 0
-160 0
-164 0
-157 0
-161 0
-154 0
-158 0
-151 0
-155 0
-148 0
-152 0
-145 0
-149 0
-142 0
-146 0
-139 0
-143 0
-136 0
-140 0
-133 0
-137 0
-130 0
-134 0
-127 0
-131 0
-124 0
-128 0
-121 0
-125 0
-118 0
-122 0
-115 0
-119 0
-112 0
-116 0
-109 0
-113 0
-106 0
-110 0
-103 0
-107 0
-100 0
-104 0
-97 0
-101 0
-94 0
-98 0
-91 0
-95 0
-88 0
-92 0
-85 0
-89 0
-79 0
-86 0
